certificates/rado_a13_c35_N40.cnf
c Rad2 upper bound instance: x1 + 13*x2 - x3 = 35, interval [1,40]
p cnf 40 236
1 3 5 0
-1 -3 -5 0
1 4 18 0
-1 -4 -18 0
1 5 31 0
-1 -5 -31 0
2 3 6 0
-2 -3 -6 0
2 4 19 0
-2 -4 -19 0
2 5 32 0
-2 -5 -32 0
3 7 0
-3 -7 0
3 4 20 0
-3 -4 -20 0
3 5 33 0
-3 -5 -33 0
3 4 8 0
-3 -4 -8 0
4 21 0
-4 -21 0
4 5 34 0
-4 -5 -34 0
3 5 9 0
-3 -5 -9 0
4 5 22 0
-4 -5 -22 0
5 35 0
-5 -35 0
3 6 10 0
-3 -6 -10 0
4 6 23 0
-4 -6 -23 0
5 6 36 0
-5 -6 -36 0
3 7 11 0
-3 -7 -11 0
4 7 24 0
-4 -7 -24 0
5 7 37 0
-5 -7 -37 0
3 8 12 0
-3 -8 -12 0
4 8 25 0
-4 -8 -25 0
5 8 38 0
-5 -8 -38 0
3 9 13 0
-3 -9 -13 0
4 9 26 0
-4 -9 -26 0
5 9 39 0
-5 -9 -39 0
1 2 10 0
-1 -2 -10 0
3 10 14 0
-3 -10 -14 0
4 10 27 0
-4 -10 -27 0
5 10 40 0
-5 -10 -40 0
2 11 0
-2 -11 0
3 11 15 0
-3 -11 -15 0
4 11 28 0
-4 -11 -28 0
2 3 12 0
-2 -3 -12 0
3 12 16 0
-3 -12 -16 0
4 12 29 0
-4 -12 -29 0
2 4 13 0
-2 -4 -13 0
3 13 17 0
-3 -13 -17 0
4 13 30 0
-4 -13 -30 0
2 5 14 0
-2 -5 -14 0
3 14 18 0
-3 -14 -18 0
4 14 31 0
-4 -14 -31 0
2 6 15 0
-2 -6 -15 0
3 15 19 0
-3 -15 -19 0
4 15 32 0
-4 -15 -32 0
2 7 16 0
-2 -7 -16 0
3 16 20 0
-3 -16 -20 0
4 16 33 0
-4 -16 -33 0
2 8 17 0
-2 -8 -17 0
3 17 21 0
-3 -17 -21 0
4 17 34 0
-4 -17 -34 0
2 9 18 0
-2 -9 -18 0
3 18 22 0
-3 -18 -22 0
4 18 35 0
-4 -18 -35 0
2 10 19 0
-2 -10 -19 0
3 19 23 0
-3 -19 -23 0
4 19 36 0
-4 -19 -36 0
2 11 20 0
-2 -11 -20 0
3 20 24 0
-3 -20 -24 0
4 20 37 0
-4 -20 -37 0
2 12 21 0
-2 -12 -21 0
3 21 25 0
-3 -21 -25 0
4 21 38 0
-4 -21 -38 0
2 13 22 0
-2 -13 -22 0
3 22 26 0
-3 -22 -26 0
4 22 39 0
-4 -22 -39 0
1 23 0
-1 -23 0
2 14 23 0
-2 -14 -23 0
3 23 27 0
-3 -23 -27 0
4 23 40 0
-4 -23 -40 0
1 2 24 0
-1 -2 -24 0
2 15 24 0
-2 -15 -24 0
3 24 28 0
-3 -24 -28 0
1 3 25 0
-1 -3 -25 0
2 16 25 0
-2 -16 -25 0
3 25 29 0
-3 -25 -29 0
1 4 26 0
-1 -4 -26 0
2 17 26 0
-2 -17 -26 0
3 26 30 0
-3 -26 -30 0
1 5 27 0
-1 -5 -27 0
2 18 27 0
-2 -18 -27 0
3 27 31 0
-3 -27 -31 0
1 6 28 0
-1 -6 -28 0
2 19 28 0
-2 -19 -28 0
3 28 32 0
-3 -28 -32 0
1 7 29 0
-1 -7 -29 0
2 20 29 0
-2 -20 -29 0
3 29 33 0
-3 -29 -33 0
1 8 30 0
-1 -8 -30 0
2 21 30 0
-2 -21 -30 0
3 30 34 0
-3 -30 -34 0
1 9 31 0
-1 -9 -31 0
2 22 31 0
-2 -22 -31 0
3 31 35 0
-3 -31 -35 0
1 10 32 0
-1 -10 -32 0
2 23 32 0
-2 -23 -32 0
3 32 36 0
-3 -32 -36 0
1 11 33 0
-1 -11 -33 0
2 24 33 0
-2 -24 -33 0
3 33 37 0
-3 -33 -37 0
1 12 34 0
-1 -12 -34 0
2 25 34 0
-2 -25 -34 0
3 34 38 0
-3 -34 -38 0
1 13 35 0
-1 -13 -35 0
2 26 35 0
-2 -26 -35 0
3 35 39 0
-3 -35 -39 0
1 14 36 0
-1 -14 -36 0
2 27 36 0
-2 -27 -36 0
3 36 40 0
-3 -36 -40 0
1 15 37 0
-1 -15 -37 0
2 28 37 0
-2 -28 -37 0
1 16 38 0
-1 -16 -38 0
2 29 38 0
-2 -29 -38 0
1 17 39 0
-1 -17 -39 0
2 30 39 0
-2 -30 -39 0
1 18 40 0
-1 -18 -40 0
2 31 40 0
-2 -31 -40 0
