certificates/rado_a13_c35_N40.drat
3 -37 0
-3 -39 -40 0
-5 -38 3 -40 0
5 3 -39 0
-39 -40 0
d -3 -39 -40 0
-5 -40 0
d -38 3 -5 -40 0
-3 -40 0
3 5 0
d 33 3 5 0
-40 0
5 0
-35 0
-3 0
7 0
36 0
39 0
-37 0
31 0
-6 0
-9 0
33 0
-1 0
10 0
2 0
28 0
13 0
23 0
18 0
25 0
15 0
-11 0
-19 0
-14 0
-32 0
-24 0
-30 0
-27 0
-16 0
-22 0
-4 0
-34 0
20 0
0
